BAYES
5
2 3 4 5 6
5
1 0
1 1
2 2 0
3 3 0 1
4 4 2 3 1

#potential
2
  0.2 0.8

2
  0.3 0.7

4
  0.1 0.9
  0.9 0.1

8
  0.4 0.6
  0.5 0.5
  0.5 0.5
  1 0




24
  0.3 0.6 0.1
  0.5 0.5 0
  0.5 0.5 0
  1 0 0
  0.4 0.6 0
  0.5 0.5 0
  0.5 0.5 0
  0 0 1


